
Gurobi 10.0.3 (linux64, gurobi_cl) logging started Thu Nov  2 11:37:58 2023

Set parameter Username
Set parameter TimeLimit to value 3600
Set parameter LogFile to value "RCPSP_808.log"
Set parameter Threads to value 32
Academic license - for non-commercial use only - expires 2024-10-30
Using license file /home/jrivera6/gurobi-licenses/v1003/compute-0-39/gurobi.lic

Gurobi Optimizer version 10.0.3 build v10.0.3rc0 (linux64)
Copyright (c) 2023, Gurobi Optimization, LLC

Read MPS format model from file RCPSP_808.mps
Reading time = 0.06 seconds
RCPSP_808: 19662 rows, 7750 columns, 60956 nonzeros

CPU model: Intel(R) Xeon(R) Gold 6242 CPU @ 2.80GHz, instruction set [SSE2|AVX|AVX2|AVX512]
Thread count: 32 physical cores, 32 logical processors, using up to 32 threads

Optimize a model with 19662 rows, 7750 columns and 60956 nonzeros
Model fingerprint: 0x65b9eb31
Variable types: 62 continuous, 7688 integer (7688 binary)
Coefficient statistics:
  Matrix range     [1e+00, 3e+02]
  Objective range  [1e+00, 1e+00]
  Bounds range     [1e+00, 1e+00]
  RHS range        [1e+00, 3e+02]
Presolve removed 9770 rows and 3733 columns
Presolve time: 3.95s
Presolved: 9892 rows, 4017 columns, 31121 nonzeros
Variable types: 61 continuous, 3956 integer (3956 binary)

Root relaxation: objective 7.400000e+01, 1255 iterations, 0.01 seconds (0.01 work units)

    Nodes    |    Current Node    |     Objective Bounds      |     Work
 Expl Unexpl |  Obj  Depth IntInf | Incumbent    BestBd   Gap | It/Node Time

     0     0   74.00000    0   92          -   74.00000      -     -    4s
     0     0   74.00000    0  269          -   74.00000      -     -    6s
     0     0   74.00000    0  256          -   74.00000      -     -    6s
     0     0   74.00000    0   45          -   74.00000      -     -    8s
     0     0   74.00000    0   74          -   74.00000      -     -    9s
     0     0   74.00000    0   81          -   74.00000      -     -    9s
     0     0   74.00000    0  105          -   74.00000      -     -   10s
     0     0   74.00000    0  202          -   74.00000      -     -   10s
     0     0   74.00000    0   99          -   74.00000      -     -   11s
H    0     0                      89.0000000   74.00000  16.9%     -   11s
     0     0   74.00000    0   97   89.00000   74.00000  16.9%     -   12s
H    0     0                      84.0000000   74.00000  11.9%     -   13s
     0     0   74.00000    0   24   84.00000   74.00000  11.9%     -   20s
     0     0   74.00000    0   22   84.00000   74.00000  11.9%     -   20s
     0     0   74.00000    0   79   84.00000   74.00000  11.9%     -   24s
     0     0   75.00000    0  110   84.00000   75.00000  10.7%     -   25s
     0     0   75.00000    0   71   84.00000   75.00000  10.7%     -   26s
H    0     0                      83.0000000   75.00000  9.64%     -   26s
     0     0   75.00000    0  169   83.00000   75.00000  9.64%     -   26s
H    0     0                      82.0000000   75.00000  8.54%     -   27s
     0     0   75.00000    0   89   82.00000   75.00000  8.54%     -   27s
     0     0   75.00000    0   88   82.00000   75.00000  8.54%     -   27s
     0     0   75.00000    0  161   82.00000   75.00000  8.54%     -   28s
     0     0   75.00000    0   49   82.00000   75.00000  8.54%     -   29s
     0     0   75.00000    0   40   82.00000   75.00000  8.54%     -   29s
     0     2   75.00000    0   39   82.00000   75.00000  8.54%     -   32s
     7    10   77.00000    3   39   82.00000   75.00000  8.54%   169   35s
   106    84     cutoff    8        82.00000   75.00000  8.54%  80.6   50s
H  109    84                      81.0000000   75.00000  7.41%  78.5   50s
H  111    84                      80.0000000   75.00000  6.25%  77.1   50s
   232    45   79.00000   11  136   80.00000   75.00000  6.25%  45.4   55s
   517   263   78.00000   21  133   80.00000   75.00000  6.25%  39.1   60s
  1283   671   75.00000   15  116   80.00000   75.00000  6.25%  27.7   68s
H 1357   671                      80.0000000   75.00000  6.25%  27.3   68s
  1656   926   75.66667   29  126   80.00000   75.00000  6.25%  25.7   70s
  2892  1435   76.00000   26   97   80.00000   75.00000  6.25%  21.8   87s
  2902  1445   75.00000   12  168   80.00000   75.00000  6.25%  24.1   93s
  2908  1447   75.00000   14  102   80.00000   75.00000  6.25%  24.4   95s
  2932  1471   76.00000   17   76   80.00000   75.00000  6.25%  24.8  101s
  3018  1484   77.00000   19   73   80.00000   75.00000  6.25%  25.1  108s
  3050  1481   77.00000   20  104   80.00000   75.00000  6.25%  25.6  110s
  3339  1499   77.00000   20  199   80.00000   75.00000  6.25%  25.5  115s
  3998  1750   75.00000   24  206   80.00000   75.00000  6.25%  23.7  120s
* 5157  1820              83      79.0000000   75.00000  5.06%  20.7  122s
  5164  1683   77.00000   21  163   79.00000   75.00000  5.06%  20.7  127s
  5658  1626 infeasible   27        79.00000   75.06250  4.98%  20.7  130s
  6287  1804   77.00000   41  157   79.00000   75.06250  4.98%  20.0  145s
H 6293  1734                      78.0000000   75.06250  3.77%  20.0  145s
  6809   716 infeasible   28        78.00000   77.00000  1.28%  19.9  151s
  7931     1     cutoff   47        78.00000   77.00000  1.28%  17.4  156s

Cutting planes:
  Learned: 8
  Gomory: 6
  Lift-and-project: 1
  Cover: 21
  Implied bound: 27
  Clique: 7
  MIR: 40
  RLT: 14
  Relax-and-lift: 12

Explored 7968 nodes (162866 simplex iterations) in 156.11 seconds (10.02 work units)
Thread count was 32 (of 32 available processors)

Solution count 9: 78 79 80 ... 89

Optimal solution found (tolerance 1.00e-04)
Best objective 7.800000000000e+01, best bound 7.800000000000e+01, gap 0.0000%

Wrote result file 'RCPSP_808.sol'

